NAME          DCAP_3_4_2_500_SS73
ROWS
 N  OBJ
 L  CON1
 L  CON2
 L  CON3
 L  CON4
 L  CON5
 L  CON6
 L  CON7
 L  CON8
 L  CON9
 L  CON10
 L  CON11
 L  CON12
 E  CON13
 E  CON14
 E  CON15
 E  CON16
 E  CON17
 E  CON18
 E  CON19
 E  CON20
COLUMNS
    x[1,1]    OBJ       6.180167      CON1      1.000000    
    x[1,1]    CON7      -1.000000     CON8      -1.000000   
    x[1,2]    OBJ       5.039546      CON2      1.000000    
    x[1,2]    CON8      -1.000000   
    x[2,1]    OBJ       6.732585      CON3      1.000000    
    x[2,1]    CON9      -1.000000     CON10     -1.000000   
    x[2,2]    OBJ       7.443064      CON4      1.000000    
    x[2,2]    CON10     -1.000000   
    x[3,1]    OBJ       6.563535      CON5      1.000000    
    x[3,1]    CON11     -1.000000     CON12     -1.000000   
    x[3,2]    OBJ       6.054841      CON6      1.000000    
    x[3,2]    CON12     -1.000000   
    MARKER    'MARKER'                'INTORG'
    u[1,1]    OBJ       48.076654     CON1      -1.000000   
    u[1,2]    OBJ       49.466655     CON2      -1.000000   
    u[2,1]    OBJ       49.996186     CON3      -1.000000   
    u[2,2]    OBJ       32.230043     CON4      -1.000000   
    u[3,1]    OBJ       20.066487     CON5      -1.000000   
    u[3,2]    OBJ       27.484319     CON6      -1.000000   
    y[1,1,1]  OBJ       6.958191      CON7      0.542720    
    y[1,1,1]  CON13     1.000000    
    y[1,1,2]  OBJ       6.114469      CON8      1.417180    
    y[1,1,2]  CON14     1.000000    
    y[1,2,1]  OBJ       9.589811      CON7      0.792806    
    y[1,2,1]  CON15     1.000000    
    y[1,2,2]  OBJ       9.155377      CON8      0.631630    
    y[1,2,2]  CON16     1.000000    
    y[1,3,1]  OBJ       8.837859      CON7      0.540680    
    y[1,3,1]  CON17     1.000000    
    y[1,3,2]  OBJ       7.878057      CON8      1.307780    
    y[1,3,2]  CON18     1.000000    
    y[1,4,1]  OBJ       5.287172      CON7      0.604439    
    y[1,4,1]  CON19     1.000000    
    y[1,4,2]  OBJ       5.564875      CON8      1.091904    
    y[1,4,2]  CON20     1.000000    
    y[2,1,1]  OBJ       6.272854      CON9      0.542720    
    y[2,1,1]  CON13     1.000000    
    y[2,1,2]  OBJ       6.066237      CON10     1.417180    
    y[2,1,2]  CON14     1.000000    
    y[2,2,1]  OBJ       8.973585      CON9      0.792806    
    y[2,2,1]  CON15     1.000000    
    y[2,2,2]  OBJ       7.331917      CON10     0.631630    
    y[2,2,2]  CON16     1.000000    
    y[2,3,1]  OBJ       9.473105      CON9      0.540680    
    y[2,3,1]  CON17     1.000000    
    y[2,3,2]  OBJ       8.055849      CON10     1.307780    
    y[2,3,2]  CON18     1.000000    
    y[2,4,1]  OBJ       6.131051      CON9      0.604439    
    y[2,4,1]  CON19     1.000000    
    y[2,4,2]  OBJ       8.263326      CON10     1.091904    
    y[2,4,2]  CON20     1.000000    
    y[3,1,1]  OBJ       9.188064      CON11     0.542720    
    y[3,1,1]  CON13     1.000000    
    y[3,1,2]  OBJ       5.595871      CON12     1.417180    
    y[3,1,2]  CON14     1.000000    
    y[3,2,1]  OBJ       7.540714      CON11     0.792806    
    y[3,2,1]  CON15     1.000000    
    y[3,2,2]  OBJ       9.396403      CON12     0.631630    
    y[3,2,2]  CON16     1.000000    
    y[3,3,1]  OBJ       8.392343      CON11     0.540680    
    y[3,3,1]  CON17     1.000000    
    y[3,3,2]  OBJ       7.835706      CON12     1.307780    
    y[3,3,2]  CON18     1.000000    
    y[3,4,1]  OBJ       8.936316      CON11     0.604439    
    y[3,4,1]  CON19     1.000000    
    y[3,4,2]  OBJ       6.236751      CON12     1.091904    
    y[3,4,2]  CON20     1.000000    
    z[1,1]    OBJ       758.190590    CON13     1.000000    
    z[1,2]    OBJ       825.484139    CON14     1.000000    
    z[2,1]    OBJ       794.611996    CON15     1.000000    
    z[2,2]    OBJ       714.747652    CON16     1.000000    
    z[3,1]    OBJ       881.579285    CON17     1.000000    
    z[3,2]    OBJ       845.581824    CON18     1.000000    
    z[4,1]    OBJ       520.157032    CON19     1.000000    
    z[4,2]    OBJ       797.384099    CON20     1.000000    
    MARKER    'MARKER'                 'INTEND'
RHS
    RHS       CON1      -0.000000     CON2      -0.000000   
    RHS       CON3      -0.000000     CON4      -0.000000   
    RHS       CON5      -0.000000     CON6      -0.000000   
    RHS       CON7      -0.000000     CON8      -0.000000   
    RHS       CON9      -0.000000     CON10     -0.000000   
    RHS       CON11     -0.000000     CON12     -0.000000   
    RHS       CON13     1.000000      CON14     1.000000    
    RHS       CON15     1.000000      CON16     1.000000    
    RHS       CON17     1.000000      CON18     1.000000    
    RHS       CON19     1.000000      CON20     1.000000    
BOUNDS
 BV BOUND     u[1,1]  
 BV BOUND     u[1,2]  
 BV BOUND     u[2,1]  
 BV BOUND     u[2,2]  
 BV BOUND     u[3,1]  
 BV BOUND     u[3,2]  
 BV BOUND     y[1,1,1]
 BV BOUND     y[1,1,2]
 BV BOUND     y[1,2,1]
 BV BOUND     y[1,2,2]
 BV BOUND     y[1,3,1]
 BV BOUND     y[1,3,2]
 BV BOUND     y[1,4,1]
 BV BOUND     y[1,4,2]
 BV BOUND     y[2,1,1]
 BV BOUND     y[2,1,2]
 BV BOUND     y[2,2,1]
 BV BOUND     y[2,2,2]
 BV BOUND     y[2,3,1]
 BV BOUND     y[2,3,2]
 BV BOUND     y[2,4,1]
 BV BOUND     y[2,4,2]
 BV BOUND     y[3,1,1]
 BV BOUND     y[3,1,2]
 BV BOUND     y[3,2,1]
 BV BOUND     y[3,2,2]
 BV BOUND     y[3,3,1]
 BV BOUND     y[3,3,2]
 BV BOUND     y[3,4,1]
 BV BOUND     y[3,4,2]
 BV BOUND     z[1,1]  
 BV BOUND     z[1,2]  
 BV BOUND     z[2,1]  
 BV BOUND     z[2,2]  
 BV BOUND     z[3,1]  
 BV BOUND     z[3,2]  
 BV BOUND     z[4,1]  
 BV BOUND     z[4,2]  
ENDATA
